
Gurobi 11.0.1 (win64) logging started Sat Mar 30 07:12:17 2024

Set parameter LogFile to value "C:\Projetos\Job_Rotation_Algorithms\Outputs\GurobiLogs\gurobi_log-output-9_hes-c99-BorbaRittModel-NoExtraConstraint-2.log"
Gurobi Optimizer version 11.0.1 build v11.0.1rc0 (win64 - Windows 10.0 (19045.2))

CPU model: 11th Gen Intel(R) Core(TM) i7-1165G7 @ 2.80GHz, instruction set [SSE2|AVX|AVX2|AVX512]
Thread count: 4 physical cores, 8 logical processors, using up to 1 threads

WLS license 901039 - registered to Bitka Analytics
Optimize a model with 1108 rows, 347 columns and 3555 nonzeros
Model fingerprint: 0x392041b1
Variable types: 2 continuous, 345 integer (345 binary)
Coefficient statistics:
  Matrix range     [1e+00, 1e+02]
  Objective range  [1e+00, 1e+00]
  Bounds range     [1e+00, 2e+02]
  RHS range        [1e+00, 2e+02]
Presolve removed 3 rows and 3 columns
Presolve time: 0.00s
Presolved: 1105 rows, 344 columns, 3549 nonzeros
Variable types: 0 continuous, 344 integer (343 binary)

Root relaxation: objective 5.522602e+01, 646 iterations, 0.02 seconds (0.02 work units)

    Nodes    |    Current Node    |     Objective Bounds      |     Work
 Expl Unexpl |  Obj  Depth IntInf | Incumbent    BestBd   Gap | It/Node Time

     0     0   55.22602    0   93          -   55.22602      -     -    0s
     0     0   55.00000    0  111          -   55.00000      -     -    0s
     0     0   55.00000    0  109          -   55.00000      -     -    0s
     0     0   55.00000    0   68          -   55.00000      -     -    0s
     0     0   55.00000    0   99          -   55.00000      -     -    0s
     0     0   55.00000    0   99          -   55.00000      -     -    0s
     0     0   55.00000    0   99          -   55.00000      -     -    0s
     0     0   55.00000    0   99          -   55.00000      -     -    0s
     0     0   55.00000    0   97          -   55.00000      -     -    0s
     0     0   55.00000    0   97          -   55.00000      -     -    0s
H    0     0                      31.0000000   55.00000  77.4%     -    0s
H    0     0                      35.0000000   55.00000  57.1%     -    0s
H    0     0                      37.0000000   55.00000  48.6%     -    0s
     0     2   55.00000    0   97   37.00000   55.00000  48.6%     -    0s
H   81    48                      38.0000000   55.00000  44.7%  64.5    0s
H  210    89                      39.0000000   55.00000  41.0%  50.3    1s
H  274   128                      41.0000000   54.99731  34.1%  48.8    1s
H  303   141                      43.0000000   54.99731  27.9%  48.8    1s
H  393   174                      44.0000000   54.98666  25.0%  47.3    1s
H  498   218                      45.0000000   54.94029  22.1%  47.1    1s
H 1108   359                      48.0000000   54.79691  14.2%  53.2    4s
* 1205   324              27      49.0000000   54.79691  11.8%  54.0    4s
  1217   325   51.73996   20  126   49.00000   54.79691  11.8%  54.2    5s

Cutting planes:
  Gomory: 8
  Cover: 15
  MIR: 5
  Flow cover: 12
  Inf proof: 18
  Zero half: 12
  RLT: 27
  BQP: 1

Explored 2553 nodes (129406 simplex iterations) in 8.19 seconds (8.31 work units)
Thread count was 1 (of 8 available processors)

Solution count 10: 49 48 45 ... 35

Optimal solution found (tolerance 1.00e-03)
Best objective 4.900000000000e+01, best bound 4.900000000000e+01, gap 0.0000%
